37 39 64 73 53 26 4 80 16 83 70 36 97 88 7 89 52 48 82 68 15 86 38 55 54 74 32 57 34 12 18 14 31 81 98 78 56 65 46 11 79 27 1 10 63 6 94 45 60 42 0 30 85 50 67 17 66 51 84 92 5 20 8 22 21 75 96 3 91 69 61 95 41 62 9 13 76 29 25 49 23 28 35 87 72 59 90 2 58 93 33 44 40 19 77 99 47 24 43 71